c *********************************
c * Circuit generated by BenCGen
c *
c * RippleCarryAdderSubtractor_89_89_89_OutSunT
c *
c * Ports with 1 gate(s): 2
c * Ports with 2 gate(s): 536
c * Total gates: 538
c *********************************
p cnf 716 1880
1 270 0
-1 -270 0
1 -269 0
270 -269 0
-1 -270 269 0
269 271 0
-269 -271 0
90 269 -272 0
-90 269 272 0
90 -269 272 0
-90 -269 -272 0
91 269 -273 0
-91 269 273 0
91 -269 273 0
-91 -269 -273 0
92 269 -274 0
-92 269 274 0
92 -269 274 0
-92 -269 -274 0
93 269 -275 0
-93 269 275 0
93 -269 275 0
-93 -269 -275 0
94 269 -276 0
-94 269 276 0
94 -269 276 0
-94 -269 -276 0
95 269 -277 0
-95 269 277 0
95 -269 277 0
-95 -269 -277 0
96 269 -278 0
-96 269 278 0
96 -269 278 0
-96 -269 -278 0
97 269 -279 0
-97 269 279 0
97 -269 279 0
-97 -269 -279 0
98 269 -280 0
-98 269 280 0
98 -269 280 0
-98 -269 -280 0
99 269 -281 0
-99 269 281 0
99 -269 281 0
-99 -269 -281 0
100 269 -282 0
-100 269 282 0
100 -269 282 0
-100 -269 -282 0
101 269 -283 0
-101 269 283 0
101 -269 283 0
-101 -269 -283 0
102 269 -284 0
-102 269 284 0
102 -269 284 0
-102 -269 -284 0
103 269 -285 0
-103 269 285 0
103 -269 285 0
-103 -269 -285 0
104 269 -286 0
-104 269 286 0
104 -269 286 0
-104 -269 -286 0
105 269 -287 0
-105 269 287 0
105 -269 287 0
-105 -269 -287 0
106 269 -288 0
-106 269 288 0
106 -269 288 0
-106 -269 -288 0
107 269 -289 0
-107 269 289 0
107 -269 289 0
-107 -269 -289 0
108 269 -290 0
-108 269 290 0
108 -269 290 0
-108 -269 -290 0
109 269 -291 0
-109 269 291 0
109 -269 291 0
-109 -269 -291 0
110 269 -292 0
-110 269 292 0
110 -269 292 0
-110 -269 -292 0
111 269 -293 0
-111 269 293 0
111 -269 293 0
-111 -269 -293 0
112 269 -294 0
-112 269 294 0
112 -269 294 0
-112 -269 -294 0
113 269 -295 0
-113 269 295 0
113 -269 295 0
-113 -269 -295 0
114 269 -296 0
-114 269 296 0
114 -269 296 0
-114 -269 -296 0
115 269 -297 0
-115 269 297 0
115 -269 297 0
-115 -269 -297 0
116 269 -298 0
-116 269 298 0
116 -269 298 0
-116 -269 -298 0
117 269 -299 0
-117 269 299 0
117 -269 299 0
-117 -269 -299 0
118 269 -300 0
-118 269 300 0
118 -269 300 0
-118 -269 -300 0
119 269 -301 0
-119 269 301 0
119 -269 301 0
-119 -269 -301 0
120 269 -302 0
-120 269 302 0
120 -269 302 0
-120 -269 -302 0
121 269 -303 0
-121 269 303 0
121 -269 303 0
-121 -269 -303 0
122 269 -304 0
-122 269 304 0
122 -269 304 0
-122 -269 -304 0
123 269 -305 0
-123 269 305 0
123 -269 305 0
-123 -269 -305 0
124 269 -306 0
-124 269 306 0
124 -269 306 0
-124 -269 -306 0
125 269 -307 0
-125 269 307 0
125 -269 307 0
-125 -269 -307 0
126 269 -308 0
-126 269 308 0
126 -269 308 0
-126 -269 -308 0
127 269 -309 0
-127 269 309 0
127 -269 309 0
-127 -269 -309 0
128 269 -310 0
-128 269 310 0
128 -269 310 0
-128 -269 -310 0
129 269 -311 0
-129 269 311 0
129 -269 311 0
-129 -269 -311 0
130 269 -312 0
-130 269 312 0
130 -269 312 0
-130 -269 -312 0
131 269 -313 0
-131 269 313 0
131 -269 313 0
-131 -269 -313 0
132 269 -314 0
-132 269 314 0
132 -269 314 0
-132 -269 -314 0
133 269 -315 0
-133 269 315 0
133 -269 315 0
-133 -269 -315 0
134 269 -316 0
-134 269 316 0
134 -269 316 0
-134 -269 -316 0
135 269 -317 0
-135 269 317 0
135 -269 317 0
-135 -269 -317 0
136 269 -318 0
-136 269 318 0
136 -269 318 0
-136 -269 -318 0
137 269 -319 0
-137 269 319 0
137 -269 319 0
-137 -269 -319 0
138 269 -320 0
-138 269 320 0
138 -269 320 0
-138 -269 -320 0
139 269 -321 0
-139 269 321 0
139 -269 321 0
-139 -269 -321 0
140 269 -322 0
-140 269 322 0
140 -269 322 0
-140 -269 -322 0
141 269 -323 0
-141 269 323 0
141 -269 323 0
-141 -269 -323 0
142 269 -324 0
-142 269 324 0
142 -269 324 0
-142 -269 -324 0
143 269 -325 0
-143 269 325 0
143 -269 325 0
-143 -269 -325 0
144 269 -326 0
-144 269 326 0
144 -269 326 0
-144 -269 -326 0
145 269 -327 0
-145 269 327 0
145 -269 327 0
-145 -269 -327 0
146 269 -328 0
-146 269 328 0
146 -269 328 0
-146 -269 -328 0
147 269 -329 0
-147 269 329 0
147 -269 329 0
-147 -269 -329 0
148 269 -330 0
-148 269 330 0
148 -269 330 0
-148 -269 -330 0
149 269 -331 0
-149 269 331 0
149 -269 331 0
-149 -269 -331 0
150 269 -332 0
-150 269 332 0
150 -269 332 0
-150 -269 -332 0
151 269 -333 0
-151 269 333 0
151 -269 333 0
-151 -269 -333 0
152 269 -334 0
-152 269 334 0
152 -269 334 0
-152 -269 -334 0
153 269 -335 0
-153 269 335 0
153 -269 335 0
-153 -269 -335 0
154 269 -336 0
-154 269 336 0
154 -269 336 0
-154 -269 -336 0
155 269 -337 0
-155 269 337 0
155 -269 337 0
-155 -269 -337 0
156 269 -338 0
-156 269 338 0
156 -269 338 0
-156 -269 -338 0
157 269 -339 0
-157 269 339 0
157 -269 339 0
-157 -269 -339 0
158 269 -340 0
-158 269 340 0
158 -269 340 0
-158 -269 -340 0
159 269 -341 0
-159 269 341 0
159 -269 341 0
-159 -269 -341 0
160 269 -342 0
-160 269 342 0
160 -269 342 0
-160 -269 -342 0
161 269 -343 0
-161 269 343 0
161 -269 343 0
-161 -269 -343 0
162 269 -344 0
-162 269 344 0
162 -269 344 0
-162 -269 -344 0
163 269 -345 0
-163 269 345 0
163 -269 345 0
-163 -269 -345 0
164 269 -346 0
-164 269 346 0
164 -269 346 0
-164 -269 -346 0
165 269 -347 0
-165 269 347 0
165 -269 347 0
-165 -269 -347 0
166 269 -348 0
-166 269 348 0
166 -269 348 0
-166 -269 -348 0
167 269 -349 0
-167 269 349 0
167 -269 349 0
-167 -269 -349 0
168 269 -350 0
-168 269 350 0
168 -269 350 0
-168 -269 -350 0
169 269 -351 0
-169 269 351 0
169 -269 351 0
-169 -269 -351 0
170 269 -352 0
-170 269 352 0
170 -269 352 0
-170 -269 -352 0
171 269 -353 0
-171 269 353 0
171 -269 353 0
-171 -269 -353 0
172 269 -354 0
-172 269 354 0
172 -269 354 0
-172 -269 -354 0
173 269 -355 0
-173 269 355 0
173 -269 355 0
-173 -269 -355 0
174 269 -356 0
-174 269 356 0
174 -269 356 0
-174 -269 -356 0
175 269 -357 0
-175 269 357 0
175 -269 357 0
-175 -269 -357 0
176 269 -358 0
-176 269 358 0
176 -269 358 0
-176 -269 -358 0
177 269 -359 0
-177 269 359 0
177 -269 359 0
-177 -269 -359 0
178 269 -360 0
-178 269 360 0
178 -269 360 0
-178 -269 -360 0
1 272 -362 0
-1 272 362 0
1 -272 362 0
-1 -272 -362 0
362 269 -179 0
-362 269 179 0
362 -269 179 0
-362 -269 -179 0
269 -363 0
362 -363 0
-269 -362 363 0
272 -364 0
1 -364 0
-272 -1 364 0
-363 361 0
-364 361 0
363 364 -361 0
2 273 -366 0
-2 273 366 0
2 -273 366 0
-2 -273 -366 0
366 361 -180 0
-366 361 180 0
366 -361 180 0
-366 -361 -180 0
361 -367 0
366 -367 0
-361 -366 367 0
273 -368 0
2 -368 0
-273 -2 368 0
-367 365 0
-368 365 0
367 368 -365 0
3 274 -370 0
-3 274 370 0
3 -274 370 0
-3 -274 -370 0
370 365 -181 0
-370 365 181 0
370 -365 181 0
-370 -365 -181 0
365 -371 0
370 -371 0
-365 -370 371 0
274 -372 0
3 -372 0
-274 -3 372 0
-371 369 0
-372 369 0
371 372 -369 0
4 275 -374 0
-4 275 374 0
4 -275 374 0
-4 -275 -374 0
374 369 -182 0
-374 369 182 0
374 -369 182 0
-374 -369 -182 0
369 -375 0
374 -375 0
-369 -374 375 0
275 -376 0
4 -376 0
-275 -4 376 0
-375 373 0
-376 373 0
375 376 -373 0
5 276 -378 0
-5 276 378 0
5 -276 378 0
-5 -276 -378 0
378 373 -183 0
-378 373 183 0
378 -373 183 0
-378 -373 -183 0
373 -379 0
378 -379 0
-373 -378 379 0
276 -380 0
5 -380 0
-276 -5 380 0
-379 377 0
-380 377 0
379 380 -377 0
6 277 -382 0
-6 277 382 0
6 -277 382 0
-6 -277 -382 0
382 377 -184 0
-382 377 184 0
382 -377 184 0
-382 -377 -184 0
377 -383 0
382 -383 0
-377 -382 383 0
277 -384 0
6 -384 0
-277 -6 384 0
-383 381 0
-384 381 0
383 384 -381 0
7 278 -386 0
-7 278 386 0
7 -278 386 0
-7 -278 -386 0
386 381 -185 0
-386 381 185 0
386 -381 185 0
-386 -381 -185 0
381 -387 0
386 -387 0
-381 -386 387 0
278 -388 0
7 -388 0
-278 -7 388 0
-387 385 0
-388 385 0
387 388 -385 0
8 279 -390 0
-8 279 390 0
8 -279 390 0
-8 -279 -390 0
390 385 -186 0
-390 385 186 0
390 -385 186 0
-390 -385 -186 0
385 -391 0
390 -391 0
-385 -390 391 0
279 -392 0
8 -392 0
-279 -8 392 0
-391 389 0
-392 389 0
391 392 -389 0
9 280 -394 0
-9 280 394 0
9 -280 394 0
-9 -280 -394 0
394 389 -187 0
-394 389 187 0
394 -389 187 0
-394 -389 -187 0
389 -395 0
394 -395 0
-389 -394 395 0
280 -396 0
9 -396 0
-280 -9 396 0
-395 393 0
-396 393 0
395 396 -393 0
10 281 -398 0
-10 281 398 0
10 -281 398 0
-10 -281 -398 0
398 393 -188 0
-398 393 188 0
398 -393 188 0
-398 -393 -188 0
393 -399 0
398 -399 0
-393 -398 399 0
281 -400 0
10 -400 0
-281 -10 400 0
-399 397 0
-400 397 0
399 400 -397 0
11 282 -402 0
-11 282 402 0
11 -282 402 0
-11 -282 -402 0
402 397 -189 0
-402 397 189 0
402 -397 189 0
-402 -397 -189 0
397 -403 0
402 -403 0
-397 -402 403 0
282 -404 0
11 -404 0
-282 -11 404 0
-403 401 0
-404 401 0
403 404 -401 0
12 283 -406 0
-12 283 406 0
12 -283 406 0
-12 -283 -406 0
406 401 -190 0
-406 401 190 0
406 -401 190 0
-406 -401 -190 0
401 -407 0
406 -407 0
-401 -406 407 0
283 -408 0
12 -408 0
-283 -12 408 0
-407 405 0
-408 405 0
407 408 -405 0
13 284 -410 0
-13 284 410 0
13 -284 410 0
-13 -284 -410 0
410 405 -191 0
-410 405 191 0
410 -405 191 0
-410 -405 -191 0
405 -411 0
410 -411 0
-405 -410 411 0
284 -412 0
13 -412 0
-284 -13 412 0
-411 409 0
-412 409 0
411 412 -409 0
14 285 -414 0
-14 285 414 0
14 -285 414 0
-14 -285 -414 0
414 409 -192 0
-414 409 192 0
414 -409 192 0
-414 -409 -192 0
409 -415 0
414 -415 0
-409 -414 415 0
285 -416 0
14 -416 0
-285 -14 416 0
-415 413 0
-416 413 0
415 416 -413 0
15 286 -418 0
-15 286 418 0
15 -286 418 0
-15 -286 -418 0
418 413 -193 0
-418 413 193 0
418 -413 193 0
-418 -413 -193 0
413 -419 0
418 -419 0
-413 -418 419 0
286 -420 0
15 -420 0
-286 -15 420 0
-419 417 0
-420 417 0
419 420 -417 0
16 287 -422 0
-16 287 422 0
16 -287 422 0
-16 -287 -422 0
422 417 -194 0
-422 417 194 0
422 -417 194 0
-422 -417 -194 0
417 -423 0
422 -423 0
-417 -422 423 0
287 -424 0
16 -424 0
-287 -16 424 0
-423 421 0
-424 421 0
423 424 -421 0
17 288 -426 0
-17 288 426 0
17 -288 426 0
-17 -288 -426 0
426 421 -195 0
-426 421 195 0
426 -421 195 0
-426 -421 -195 0
421 -427 0
426 -427 0
-421 -426 427 0
288 -428 0
17 -428 0
-288 -17 428 0
-427 425 0
-428 425 0
427 428 -425 0
18 289 -430 0
-18 289 430 0
18 -289 430 0
-18 -289 -430 0
430 425 -196 0
-430 425 196 0
430 -425 196 0
-430 -425 -196 0
425 -431 0
430 -431 0
-425 -430 431 0
289 -432 0
18 -432 0
-289 -18 432 0
-431 429 0
-432 429 0
431 432 -429 0
19 290 -434 0
-19 290 434 0
19 -290 434 0
-19 -290 -434 0
434 429 -197 0
-434 429 197 0
434 -429 197 0
-434 -429 -197 0
429 -435 0
434 -435 0
-429 -434 435 0
290 -436 0
19 -436 0
-290 -19 436 0
-435 433 0
-436 433 0
435 436 -433 0
20 291 -438 0
-20 291 438 0
20 -291 438 0
-20 -291 -438 0
438 433 -198 0
-438 433 198 0
438 -433 198 0
-438 -433 -198 0
433 -439 0
438 -439 0
-433 -438 439 0
291 -440 0
20 -440 0
-291 -20 440 0
-439 437 0
-440 437 0
439 440 -437 0
21 292 -442 0
-21 292 442 0
21 -292 442 0
-21 -292 -442 0
442 437 -199 0
-442 437 199 0
442 -437 199 0
-442 -437 -199 0
437 -443 0
442 -443 0
-437 -442 443 0
292 -444 0
21 -444 0
-292 -21 444 0
-443 441 0
-444 441 0
443 444 -441 0
22 293 -446 0
-22 293 446 0
22 -293 446 0
-22 -293 -446 0
446 441 -200 0
-446 441 200 0
446 -441 200 0
-446 -441 -200 0
441 -447 0
446 -447 0
-441 -446 447 0
293 -448 0
22 -448 0
-293 -22 448 0
-447 445 0
-448 445 0
447 448 -445 0
23 294 -450 0
-23 294 450 0
23 -294 450 0
-23 -294 -450 0
450 445 -201 0
-450 445 201 0
450 -445 201 0
-450 -445 -201 0
445 -451 0
450 -451 0
-445 -450 451 0
294 -452 0
23 -452 0
-294 -23 452 0
-451 449 0
-452 449 0
451 452 -449 0
24 295 -454 0
-24 295 454 0
24 -295 454 0
-24 -295 -454 0
454 449 -202 0
-454 449 202 0
454 -449 202 0
-454 -449 -202 0
449 -455 0
454 -455 0
-449 -454 455 0
295 -456 0
24 -456 0
-295 -24 456 0
-455 453 0
-456 453 0
455 456 -453 0
25 296 -458 0
-25 296 458 0
25 -296 458 0
-25 -296 -458 0
458 453 -203 0
-458 453 203 0
458 -453 203 0
-458 -453 -203 0
453 -459 0
458 -459 0
-453 -458 459 0
296 -460 0
25 -460 0
-296 -25 460 0
-459 457 0
-460 457 0
459 460 -457 0
26 297 -462 0
-26 297 462 0
26 -297 462 0
-26 -297 -462 0
462 457 -204 0
-462 457 204 0
462 -457 204 0
-462 -457 -204 0
457 -463 0
462 -463 0
-457 -462 463 0
297 -464 0
26 -464 0
-297 -26 464 0
-463 461 0
-464 461 0
463 464 -461 0
27 298 -466 0
-27 298 466 0
27 -298 466 0
-27 -298 -466 0
466 461 -205 0
-466 461 205 0
466 -461 205 0
-466 -461 -205 0
461 -467 0
466 -467 0
-461 -466 467 0
298 -468 0
27 -468 0
-298 -27 468 0
-467 465 0
-468 465 0
467 468 -465 0
28 299 -470 0
-28 299 470 0
28 -299 470 0
-28 -299 -470 0
470 465 -206 0
-470 465 206 0
470 -465 206 0
-470 -465 -206 0
465 -471 0
470 -471 0
-465 -470 471 0
299 -472 0
28 -472 0
-299 -28 472 0
-471 469 0
-472 469 0
471 472 -469 0
29 300 -474 0
-29 300 474 0
29 -300 474 0
-29 -300 -474 0
474 469 -207 0
-474 469 207 0
474 -469 207 0
-474 -469 -207 0
469 -475 0
474 -475 0
-469 -474 475 0
300 -476 0
29 -476 0
-300 -29 476 0
-475 473 0
-476 473 0
475 476 -473 0
30 301 -478 0
-30 301 478 0
30 -301 478 0
-30 -301 -478 0
478 473 -208 0
-478 473 208 0
478 -473 208 0
-478 -473 -208 0
473 -479 0
478 -479 0
-473 -478 479 0
301 -480 0
30 -480 0
-301 -30 480 0
-479 477 0
-480 477 0
479 480 -477 0
31 302 -482 0
-31 302 482 0
31 -302 482 0
-31 -302 -482 0
482 477 -209 0
-482 477 209 0
482 -477 209 0
-482 -477 -209 0
477 -483 0
482 -483 0
-477 -482 483 0
302 -484 0
31 -484 0
-302 -31 484 0
-483 481 0
-484 481 0
483 484 -481 0
32 303 -486 0
-32 303 486 0
32 -303 486 0
-32 -303 -486 0
486 481 -210 0
-486 481 210 0
486 -481 210 0
-486 -481 -210 0
481 -487 0
486 -487 0
-481 -486 487 0
303 -488 0
32 -488 0
-303 -32 488 0
-487 485 0
-488 485 0
487 488 -485 0
33 304 -490 0
-33 304 490 0
33 -304 490 0
-33 -304 -490 0
490 485 -211 0
-490 485 211 0
490 -485 211 0
-490 -485 -211 0
485 -491 0
490 -491 0
-485 -490 491 0
304 -492 0
33 -492 0
-304 -33 492 0
-491 489 0
-492 489 0
491 492 -489 0
34 305 -494 0
-34 305 494 0
34 -305 494 0
-34 -305 -494 0
494 489 -212 0
-494 489 212 0
494 -489 212 0
-494 -489 -212 0
489 -495 0
494 -495 0
-489 -494 495 0
305 -496 0
34 -496 0
-305 -34 496 0
-495 493 0
-496 493 0
495 496 -493 0
35 306 -498 0
-35 306 498 0
35 -306 498 0
-35 -306 -498 0
498 493 -213 0
-498 493 213 0
498 -493 213 0
-498 -493 -213 0
493 -499 0
498 -499 0
-493 -498 499 0
306 -500 0
35 -500 0
-306 -35 500 0
-499 497 0
-500 497 0
499 500 -497 0
36 307 -502 0
-36 307 502 0
36 -307 502 0
-36 -307 -502 0
502 497 -214 0
-502 497 214 0
502 -497 214 0
-502 -497 -214 0
497 -503 0
502 -503 0
-497 -502 503 0
307 -504 0
36 -504 0
-307 -36 504 0
-503 501 0
-504 501 0
503 504 -501 0
37 308 -506 0
-37 308 506 0
37 -308 506 0
-37 -308 -506 0
506 501 -215 0
-506 501 215 0
506 -501 215 0
-506 -501 -215 0
501 -507 0
506 -507 0
-501 -506 507 0
308 -508 0
37 -508 0
-308 -37 508 0
-507 505 0
-508 505 0
507 508 -505 0
38 309 -510 0
-38 309 510 0
38 -309 510 0
-38 -309 -510 0
510 505 -216 0
-510 505 216 0
510 -505 216 0
-510 -505 -216 0
505 -511 0
510 -511 0
-505 -510 511 0
309 -512 0
38 -512 0
-309 -38 512 0
-511 509 0
-512 509 0
511 512 -509 0
39 310 -514 0
-39 310 514 0
39 -310 514 0
-39 -310 -514 0
514 509 -217 0
-514 509 217 0
514 -509 217 0
-514 -509 -217 0
509 -515 0
514 -515 0
-509 -514 515 0
310 -516 0
39 -516 0
-310 -39 516 0
-515 513 0
-516 513 0
515 516 -513 0
40 311 -518 0
-40 311 518 0
40 -311 518 0
-40 -311 -518 0
518 513 -218 0
-518 513 218 0
518 -513 218 0
-518 -513 -218 0
513 -519 0
518 -519 0
-513 -518 519 0
311 -520 0
40 -520 0
-311 -40 520 0
-519 517 0
-520 517 0
519 520 -517 0
41 312 -522 0
-41 312 522 0
41 -312 522 0
-41 -312 -522 0
522 517 -219 0
-522 517 219 0
522 -517 219 0
-522 -517 -219 0
517 -523 0
522 -523 0
-517 -522 523 0
312 -524 0
41 -524 0
-312 -41 524 0
-523 521 0
-524 521 0
523 524 -521 0
42 313 -526 0
-42 313 526 0
42 -313 526 0
-42 -313 -526 0
526 521 -220 0
-526 521 220 0
526 -521 220 0
-526 -521 -220 0
521 -527 0
526 -527 0
-521 -526 527 0
313 -528 0
42 -528 0
-313 -42 528 0
-527 525 0
-528 525 0
527 528 -525 0
43 314 -530 0
-43 314 530 0
43 -314 530 0
-43 -314 -530 0
530 525 -221 0
-530 525 221 0
530 -525 221 0
-530 -525 -221 0
525 -531 0
530 -531 0
-525 -530 531 0
314 -532 0
43 -532 0
-314 -43 532 0
-531 529 0
-532 529 0
531 532 -529 0
44 315 -534 0
-44 315 534 0
44 -315 534 0
-44 -315 -534 0
534 529 -222 0
-534 529 222 0
534 -529 222 0
-534 -529 -222 0
529 -535 0
534 -535 0
-529 -534 535 0
315 -536 0
44 -536 0
-315 -44 536 0
-535 533 0
-536 533 0
535 536 -533 0
45 316 -538 0
-45 316 538 0
45 -316 538 0
-45 -316 -538 0
538 533 -223 0
-538 533 223 0
538 -533 223 0
-538 -533 -223 0
533 -539 0
538 -539 0
-533 -538 539 0
316 -540 0
45 -540 0
-316 -45 540 0
-539 537 0
-540 537 0
539 540 -537 0
46 317 -542 0
-46 317 542 0
46 -317 542 0
-46 -317 -542 0
542 537 -224 0
-542 537 224 0
542 -537 224 0
-542 -537 -224 0
537 -543 0
542 -543 0
-537 -542 543 0
317 -544 0
46 -544 0
-317 -46 544 0
-543 541 0
-544 541 0
543 544 -541 0
47 318 -546 0
-47 318 546 0
47 -318 546 0
-47 -318 -546 0
546 541 -225 0
-546 541 225 0
546 -541 225 0
-546 -541 -225 0
541 -547 0
546 -547 0
-541 -546 547 0
318 -548 0
47 -548 0
-318 -47 548 0
-547 545 0
-548 545 0
547 548 -545 0
48 319 -550 0
-48 319 550 0
48 -319 550 0
-48 -319 -550 0
550 545 -226 0
-550 545 226 0
550 -545 226 0
-550 -545 -226 0
545 -551 0
550 -551 0
-545 -550 551 0
319 -552 0
48 -552 0
-319 -48 552 0
-551 549 0
-552 549 0
551 552 -549 0
49 320 -554 0
-49 320 554 0
49 -320 554 0
-49 -320 -554 0
554 549 -227 0
-554 549 227 0
554 -549 227 0
-554 -549 -227 0
549 -555 0
554 -555 0
-549 -554 555 0
320 -556 0
49 -556 0
-320 -49 556 0
-555 553 0
-556 553 0
555 556 -553 0
50 321 -558 0
-50 321 558 0
50 -321 558 0
-50 -321 -558 0
558 553 -228 0
-558 553 228 0
558 -553 228 0
-558 -553 -228 0
553 -559 0
558 -559 0
-553 -558 559 0
321 -560 0
50 -560 0
-321 -50 560 0
-559 557 0
-560 557 0
559 560 -557 0
51 322 -562 0
-51 322 562 0
51 -322 562 0
-51 -322 -562 0
562 557 -229 0
-562 557 229 0
562 -557 229 0
-562 -557 -229 0
557 -563 0
562 -563 0
-557 -562 563 0
322 -564 0
51 -564 0
-322 -51 564 0
-563 561 0
-564 561 0
563 564 -561 0
52 323 -566 0
-52 323 566 0
52 -323 566 0
-52 -323 -566 0
566 561 -230 0
-566 561 230 0
566 -561 230 0
-566 -561 -230 0
561 -567 0
566 -567 0
-561 -566 567 0
323 -568 0
52 -568 0
-323 -52 568 0
-567 565 0
-568 565 0
567 568 -565 0
53 324 -570 0
-53 324 570 0
53 -324 570 0
-53 -324 -570 0
570 565 -231 0
-570 565 231 0
570 -565 231 0
-570 -565 -231 0
565 -571 0
570 -571 0
-565 -570 571 0
324 -572 0
53 -572 0
-324 -53 572 0
-571 569 0
-572 569 0
571 572 -569 0
54 325 -574 0
-54 325 574 0
54 -325 574 0
-54 -325 -574 0
574 569 -232 0
-574 569 232 0
574 -569 232 0
-574 -569 -232 0
569 -575 0
574 -575 0
-569 -574 575 0
325 -576 0
54 -576 0
-325 -54 576 0
-575 573 0
-576 573 0
575 576 -573 0
55 326 -578 0
-55 326 578 0
55 -326 578 0
-55 -326 -578 0
578 573 -233 0
-578 573 233 0
578 -573 233 0
-578 -573 -233 0
573 -579 0
578 -579 0
-573 -578 579 0
326 -580 0
55 -580 0
-326 -55 580 0
-579 577 0
-580 577 0
579 580 -577 0
56 327 -582 0
-56 327 582 0
56 -327 582 0
-56 -327 -582 0
582 577 -234 0
-582 577 234 0
582 -577 234 0
-582 -577 -234 0
577 -583 0
582 -583 0
-577 -582 583 0
327 -584 0
56 -584 0
-327 -56 584 0
-583 581 0
-584 581 0
583 584 -581 0
57 328 -586 0
-57 328 586 0
57 -328 586 0
-57 -328 -586 0
586 581 -235 0
-586 581 235 0
586 -581 235 0
-586 -581 -235 0
581 -587 0
586 -587 0
-581 -586 587 0
328 -588 0
57 -588 0
-328 -57 588 0
-587 585 0
-588 585 0
587 588 -585 0
58 329 -590 0
-58 329 590 0
58 -329 590 0
-58 -329 -590 0
590 585 -236 0
-590 585 236 0
590 -585 236 0
-590 -585 -236 0
585 -591 0
590 -591 0
-585 -590 591 0
329 -592 0
58 -592 0
-329 -58 592 0
-591 589 0
-592 589 0
591 592 -589 0
59 330 -594 0
-59 330 594 0
59 -330 594 0
-59 -330 -594 0
594 589 -237 0
-594 589 237 0
594 -589 237 0
-594 -589 -237 0
589 -595 0
594 -595 0
-589 -594 595 0
330 -596 0
59 -596 0
-330 -59 596 0
-595 593 0
-596 593 0
595 596 -593 0
60 331 -598 0
-60 331 598 0
60 -331 598 0
-60 -331 -598 0
598 593 -238 0
-598 593 238 0
598 -593 238 0
-598 -593 -238 0
593 -599 0
598 -599 0
-593 -598 599 0
331 -600 0
60 -600 0
-331 -60 600 0
-599 597 0
-600 597 0
599 600 -597 0
61 332 -602 0
-61 332 602 0
61 -332 602 0
-61 -332 -602 0
602 597 -239 0
-602 597 239 0
602 -597 239 0
-602 -597 -239 0
597 -603 0
602 -603 0
-597 -602 603 0
332 -604 0
61 -604 0
-332 -61 604 0
-603 601 0
-604 601 0
603 604 -601 0
62 333 -606 0
-62 333 606 0
62 -333 606 0
-62 -333 -606 0
606 601 -240 0
-606 601 240 0
606 -601 240 0
-606 -601 -240 0
601 -607 0
606 -607 0
-601 -606 607 0
333 -608 0
62 -608 0
-333 -62 608 0
-607 605 0
-608 605 0
607 608 -605 0
63 334 -610 0
-63 334 610 0
63 -334 610 0
-63 -334 -610 0
610 605 -241 0
-610 605 241 0
610 -605 241 0
-610 -605 -241 0
605 -611 0
610 -611 0
-605 -610 611 0
334 -612 0
63 -612 0
-334 -63 612 0
-611 609 0
-612 609 0
611 612 -609 0
64 335 -614 0
-64 335 614 0
64 -335 614 0
-64 -335 -614 0
614 609 -242 0
-614 609 242 0
614 -609 242 0
-614 -609 -242 0
609 -615 0
614 -615 0
-609 -614 615 0
335 -616 0
64 -616 0
-335 -64 616 0
-615 613 0
-616 613 0
615 616 -613 0
65 336 -618 0
-65 336 618 0
65 -336 618 0
-65 -336 -618 0
618 613 -243 0
-618 613 243 0
618 -613 243 0
-618 -613 -243 0
613 -619 0
618 -619 0
-613 -618 619 0
336 -620 0
65 -620 0
-336 -65 620 0
-619 617 0
-620 617 0
619 620 -617 0
66 337 -622 0
-66 337 622 0
66 -337 622 0
-66 -337 -622 0
622 617 -244 0
-622 617 244 0
622 -617 244 0
-622 -617 -244 0
617 -623 0
622 -623 0
-617 -622 623 0
337 -624 0
66 -624 0
-337 -66 624 0
-623 621 0
-624 621 0
623 624 -621 0
67 338 -626 0
-67 338 626 0
67 -338 626 0
-67 -338 -626 0
626 621 -245 0
-626 621 245 0
626 -621 245 0
-626 -621 -245 0
621 -627 0
626 -627 0
-621 -626 627 0
338 -628 0
67 -628 0
-338 -67 628 0
-627 625 0
-628 625 0
627 628 -625 0
68 339 -630 0
-68 339 630 0
68 -339 630 0
-68 -339 -630 0
630 625 -246 0
-630 625 246 0
630 -625 246 0
-630 -625 -246 0
625 -631 0
630 -631 0
-625 -630 631 0
339 -632 0
68 -632 0
-339 -68 632 0
-631 629 0
-632 629 0
631 632 -629 0
69 340 -634 0
-69 340 634 0
69 -340 634 0
-69 -340 -634 0
634 629 -247 0
-634 629 247 0
634 -629 247 0
-634 -629 -247 0
629 -635 0
634 -635 0
-629 -634 635 0
340 -636 0
69 -636 0
-340 -69 636 0
-635 633 0
-636 633 0
635 636 -633 0
70 341 -638 0
-70 341 638 0
70 -341 638 0
-70 -341 -638 0
638 633 -248 0
-638 633 248 0
638 -633 248 0
-638 -633 -248 0
633 -639 0
638 -639 0
-633 -638 639 0
341 -640 0
70 -640 0
-341 -70 640 0
-639 637 0
-640 637 0
639 640 -637 0
71 342 -642 0
-71 342 642 0
71 -342 642 0
-71 -342 -642 0
642 637 -249 0
-642 637 249 0
642 -637 249 0
-642 -637 -249 0
637 -643 0
642 -643 0
-637 -642 643 0
342 -644 0
71 -644 0
-342 -71 644 0
-643 641 0
-644 641 0
643 644 -641 0
72 343 -646 0
-72 343 646 0
72 -343 646 0
-72 -343 -646 0
646 641 -250 0
-646 641 250 0
646 -641 250 0
-646 -641 -250 0
641 -647 0
646 -647 0
-641 -646 647 0
343 -648 0
72 -648 0
-343 -72 648 0
-647 645 0
-648 645 0
647 648 -645 0
73 344 -650 0
-73 344 650 0
73 -344 650 0
-73 -344 -650 0
650 645 -251 0
-650 645 251 0
650 -645 251 0
-650 -645 -251 0
645 -651 0
650 -651 0
-645 -650 651 0
344 -652 0
73 -652 0
-344 -73 652 0
-651 649 0
-652 649 0
651 652 -649 0
74 345 -654 0
-74 345 654 0
74 -345 654 0
-74 -345 -654 0
654 649 -252 0
-654 649 252 0
654 -649 252 0
-654 -649 -252 0
649 -655 0
654 -655 0
-649 -654 655 0
345 -656 0
74 -656 0
-345 -74 656 0
-655 653 0
-656 653 0
655 656 -653 0
75 346 -658 0
-75 346 658 0
75 -346 658 0
-75 -346 -658 0
658 653 -253 0
-658 653 253 0
658 -653 253 0
-658 -653 -253 0
653 -659 0
658 -659 0
-653 -658 659 0
346 -660 0
75 -660 0
-346 -75 660 0
-659 657 0
-660 657 0
659 660 -657 0
76 347 -662 0
-76 347 662 0
76 -347 662 0
-76 -347 -662 0
662 657 -254 0
-662 657 254 0
662 -657 254 0
-662 -657 -254 0
657 -663 0
662 -663 0
-657 -662 663 0
347 -664 0
76 -664 0
-347 -76 664 0
-663 661 0
-664 661 0
663 664 -661 0
77 348 -666 0
-77 348 666 0
77 -348 666 0
-77 -348 -666 0
666 661 -255 0
-666 661 255 0
666 -661 255 0
-666 -661 -255 0
661 -667 0
666 -667 0
-661 -666 667 0
348 -668 0
77 -668 0
-348 -77 668 0
-667 665 0
-668 665 0
667 668 -665 0
78 349 -670 0
-78 349 670 0
78 -349 670 0
-78 -349 -670 0
670 665 -256 0
-670 665 256 0
670 -665 256 0
-670 -665 -256 0
665 -671 0
670 -671 0
-665 -670 671 0
349 -672 0
78 -672 0
-349 -78 672 0
-671 669 0
-672 669 0
671 672 -669 0
79 350 -674 0
-79 350 674 0
79 -350 674 0
-79 -350 -674 0
674 669 -257 0
-674 669 257 0
674 -669 257 0
-674 -669 -257 0
669 -675 0
674 -675 0
-669 -674 675 0
350 -676 0
79 -676 0
-350 -79 676 0
-675 673 0
-676 673 0
675 676 -673 0
80 351 -678 0
-80 351 678 0
80 -351 678 0
-80 -351 -678 0
678 673 -258 0
-678 673 258 0
678 -673 258 0
-678 -673 -258 0
673 -679 0
678 -679 0
-673 -678 679 0
351 -680 0
80 -680 0
-351 -80 680 0
-679 677 0
-680 677 0
679 680 -677 0
81 352 -682 0
-81 352 682 0
81 -352 682 0
-81 -352 -682 0
682 677 -259 0
-682 677 259 0
682 -677 259 0
-682 -677 -259 0
677 -683 0
682 -683 0
-677 -682 683 0
352 -684 0
81 -684 0
-352 -81 684 0
-683 681 0
-684 681 0
683 684 -681 0
82 353 -686 0
-82 353 686 0
82 -353 686 0
-82 -353 -686 0
686 681 -260 0
-686 681 260 0
686 -681 260 0
-686 -681 -260 0
681 -687 0
686 -687 0
-681 -686 687 0
353 -688 0
82 -688 0
-353 -82 688 0
-687 685 0
-688 685 0
687 688 -685 0
83 354 -690 0
-83 354 690 0
83 -354 690 0
-83 -354 -690 0
690 685 -261 0
-690 685 261 0
690 -685 261 0
-690 -685 -261 0
685 -691 0
690 -691 0
-685 -690 691 0
354 -692 0
83 -692 0
-354 -83 692 0
-691 689 0
-692 689 0
691 692 -689 0
84 355 -694 0
-84 355 694 0
84 -355 694 0
-84 -355 -694 0
694 689 -262 0
-694 689 262 0
694 -689 262 0
-694 -689 -262 0
689 -695 0
694 -695 0
-689 -694 695 0
355 -696 0
84 -696 0
-355 -84 696 0
-695 693 0
-696 693 0
695 696 -693 0
85 356 -698 0
-85 356 698 0
85 -356 698 0
-85 -356 -698 0
698 693 -263 0
-698 693 263 0
698 -693 263 0
-698 -693 -263 0
693 -699 0
698 -699 0
-693 -698 699 0
356 -700 0
85 -700 0
-356 -85 700 0
-699 697 0
-700 697 0
699 700 -697 0
86 357 -702 0
-86 357 702 0
86 -357 702 0
-86 -357 -702 0
702 697 -264 0
-702 697 264 0
702 -697 264 0
-702 -697 -264 0
697 -703 0
702 -703 0
-697 -702 703 0
357 -704 0
86 -704 0
-357 -86 704 0
-703 701 0
-704 701 0
703 704 -701 0
87 358 -706 0
-87 358 706 0
87 -358 706 0
-87 -358 -706 0
706 701 -265 0
-706 701 265 0
706 -701 265 0
-706 -701 -265 0
701 -707 0
706 -707 0
-701 -706 707 0
358 -708 0
87 -708 0
-358 -87 708 0
-707 705 0
-708 705 0
707 708 -705 0
88 359 -710 0
-88 359 710 0
88 -359 710 0
-88 -359 -710 0
710 705 -266 0
-710 705 266 0
710 -705 266 0
-710 -705 -266 0
705 -711 0
710 -711 0
-705 -710 711 0
359 -712 0
88 -712 0
-359 -88 712 0
-711 709 0
-712 709 0
711 712 -709 0
89 360 -714 0
-89 360 714 0
89 -360 714 0
-89 -360 -714 0
714 709 -267 0
-714 709 267 0
714 -709 267 0
-714 -709 -267 0
709 -715 0
714 -715 0
-709 -714 715 0
360 -716 0
89 -716 0
-360 -89 716 0
-715 713 0
-716 713 0
715 716 -713 0
713 269 -268 0
-713 269 268 0
713 -269 268 0
-713 -269 -268 0
